\ENCODING=ISO-8859-1
\Problem name: ilog.cplex

Minimize
 obj1: 109694 x1 + 104077 x2 + 94247 x3 + 109589 x4 + 92419 x5 + 97505 x6
       + 106224 x7 + 97784 x8 + 95092 x9 + 100065 x10 + 100648 x11 + 103219 x12
       + 108262 x13 + 109494 x14 + 103286 x15 + 95771 x16 + 106831 x17
       + 99625 x18 + 101831 x19 + 107720 x20 + 103140 x21 + 103522 x22
       + 108992 x23 + 93620 x24 + 109057 x25 + 102653 x26 + 105658 x27
       + 109812 x28 + 98845 x29 + 91302 x30 + 107723 x31 + 107481 x32
       + 94575 x33 + 107487 x34 + 105462 x35 + 103035 x36 + 101527 x37
       + 104318 x38 + 95320 x39 + 90052 x40 + 102269 x41 + 99033 x42
       + 100554 x43 + 108183 x44 + 94998 x45 + 100869 x46 + 99379 x47
       + 106104 x48 + 94274 x49 + 103492 x50 + 92863 x51 + 92154 x52
       + 96067 x53 + 107343 x54 + 107244 x55 + 105106 x56 + 95005 x57
       + 99052 x58 + 92446 x59 + 104294 x60 + 108997 x61 + 97870 x62
       + 102495 x63 + 92207 x64 + 96161 x65 + 100870 x66 + 103553 x67
       + 92598 x68 + 91263 x69 + 105020 x70 + 107243 x71 + 99935 x72
       + 103409 x73 + 104570 x74 + 108440 x75 + 99993 x76 + 102271 x77
       + 101417 x78 + 92152 x79 + 93216 x80 + 103693 x81 + 102349 x82
       + 104290 x83 + 90955 x84 + 93564 x85 + 105850 x86 + 91911 x87
       + 98754 x88 + 107438 x89 + 105556 x90 + 109971 x91 + 90554 x92
       + 92613 x93 + 97435 x94 + 103653 x95 + 93045 x96 + 99255 x97 + 93451 x98
       + 108013 x99 + 100338 x100 + 105687 x101 + 99705 x102 + 91984 x103
       + 91890 x104 + 109262 x105 + 94800 x106 + 96080 x107 + 109409 x108
       + 98719 x109 + 91974 x110 + 94548 x111 + 93689 x112 + 102857 x113
       + 94029 x114 + 95130 x115 + 101111 x116 + 107671 x117 + 92250 x118
       + 101660 x119 + 92234 x120 + 98842 x121 + 104927 x122 + 105158 x123
       + 97693 x124 + 95046 x125 + 107665 x126 + 101522 x127 + 106750 x128
       + 102394 x129 + 98957 x130 + 102489 x131 + 102429 x132 + 91925 x133
       + 90606 x134 + 98413 x135 + 106145 x136 + 99264 x137 + 109330 x138
       + 98950 x139 + 94229 x140 + 108394 x141 + 103240 x142 + 100870 x143
       + 108986 x144 + 109949 x145 + 104871 x146 + 90989 x147 + 107673 x148
       + 98514 x149 + 91064 x150 + 99218 x151 + 105882 x152 + 100740 x153
       + 90522 x154 + 109328 x155 + 106134 x156 + 107894 x157 + 91560 x158
       + 101669 x159 + 109490 x160 + 97800 x161 + 97972 x162 + 91142 x163
       + 91999 x164 + 95446 x165 + 98635 x166 + 101006 x167 + 105009 x168
       + 100446 x169 + 92513 x170 + 91100 x171 + 105661 x172 + 95476 x173
       + 108814 x174 + 98634 x175 + 97167 x176 + 103749 x177 + 104020 x178
       + 103259 x179 + 98892 x180 + 94246 x181 + 100122 x182 + 92347 x183
       + 101334 x184 + 100515 x185 + 98765 x186 + 97285 x187 + 91689 x188
       + 106490 x189 + 101925 x190 + 97069 x191 + 101983 x192 + 101114 x193
       + 91349 x194 + 101609 x195 + 93653 x196 + 92438 x197 + 106186 x198
       + 93876 x199 + 109958 x200 + 100765 x201 + 106160 x202 + 105394 x203
       + 103643 x204 + 93011 x205 + 96778 x206 + 108491 x207 + 92240 x208
       + 104540 x209 + 95305 x210 + 105385 x211 + 106646 x212 + 99049 x213
       + 103543 x214 + 92789 x215 + 107200 x216 + 95488 x217 + 97327 x218
       + 106247 x219 + 94428 x220 + 96560 x221 + 97498 x222 + 95763 x223
       + 96338 x224 + 107854 x225 + 102249 x226 + 109512 x227 + 105280 x228
       + 101647 x229 + 99993 x230 + 103041 x231 + 102264 x232 + 97578 x233
       + 97071 x234 + 94849 x235 + 99650 x236 + 106152 x237 + 90440 x238
       + 98286 x239 + 96708 x240 + 90431 x241 + 91884 x242 + 94449 x243
       + 96814 x244 + 106295 x245 + 107363 x246 + 91064 x247 + 99881 x248
       + 102282 x249 + 45211 x250 + 219897 x251 + 213846 x252 + 214620 x253
       + 190063 x254 + 186519 x255 + 207507 x256 + 210429 x257 + 216821 x258
       + 206187 x259 + 217513 x260 + 196912 x261 + 201074 x262 + 210092 x263
       + 199778 x264 + 184181 x265 + 202499 x266 + 209243 x267 + 192198 x268
       + 198673 x269 + 189224 x270 + 219022 x271 + 198787 x272 + 217046 x273
       + 215218 x274 + 189925 x275 + 202139 x276 + 200423 x277 + 185607 x278
       + 190095 x279 + 202489 x280 + 218359 x281 + 181834 x282 + 193722 x283
       + 182365 x284 + 207250 x285 + 191117 x286 + 201604 x287 + 210205 x288
       + 187006 x289 + 210949 x290 + 216167 x291 + 204475 x292 + 202657 x293
       + 199440 x294 + 212923 x295 + 181775 x296 + 184180 x297 + 216047 x298
       + 213877 x299 + 96021 x300
Subject To
 c1:   - x12 + x23 - x25 - x34 + x35 - x40 - x47  = 0
 c2:   - x62 + x73 - x75 - x84 + x85 - x90 - x97  = 0
 c3:   - x112 + x123 - x125 - x134 + x135 - x140 - x147  = 0
 c4:   - x162 + x173 - x175 - x184 + x185 - x190 - x197  = 0
 c5:   - x212 + x223 - x225 - x234 + x235 - x240 - x247  = 1
 c6:   - x2 - x18 - x22 + x27 + x40 + x43 + x45  = 0
 c7:   - x52 - x68 - x72 + x77 + x90 + x93 + x95  = 0
 c8:   - x102 - x118 - x122 + x127 + x140 + x143 + x145  = 0
 c9:   - x152 - x168 - x172 + x177 + x190 + x193 + x195  = 0
 c10:  - x202 - x218 - x222 + x227 + x240 + x243 + x245  = 0
 c11:  - x1 + x9 - x19 + x21 + x29 - x30 - x42 + x50  = 0
 c12:  - x51 + x59 - x69 + x71 + x79 - x80 - x92 + x100  = 0
 c13:  - x101 + x109 - x119 + x121 + x129 - x130 - x142 + x150  = 0
 c14:  - x151 + x159 - x169 + x171 + x179 - x180 - x192 + x200  = -1
 c15:  - x201 + x209 - x219 + x221 + x229 - x230 - x242 + x250  = 0
 c16:  x12 - x13 - x20 + x22 + x33 - x44  = 1
 c17:  x62 - x63 - x70 + x72 + x83 - x94  = 0
 c18:  x112 - x113 - x120 + x122 + x133 - x144  = 0
 c19:  x162 - x163 - x170 + x172 + x183 - x194  = 1
 c20:  x212 - x213 - x220 + x222 + x233 - x244  = 0
 c21:  x17 + x25 + x41 - x43 - x48  = -1
 c22:  x67 + x75 + x91 - x93 - x98  = 0
 c23:  x117 + x125 + x141 - x143 - x148  = 1
 c24:  x167 + x175 + x191 - x193 - x198  = 0
 c25:  x217 + x225 + x241 - x243 - x248  = 0
 c26:  - x6 - x7 + x11 + x13 + x26 - x35 - x37 + x46 + x48 - x50  = 0
 c27:  - x56 - x57 + x61 + x63 + x76 - x85 - x87 + x96 + x98 - x100  = 0
 c28:  - x106 - x107 + x111 + x113 + x126 - x135 - x137 + x146 + x148 - x150
        = 0
 c29:  - x156 - x157 + x161 + x163 + x176 - x185 - x187 + x196 + x198 - x200
        = 0
 c30:  - x206 - x207 + x211 + x213 + x226 - x235 - x237 + x246 + x248 - x250
        = 0
 c31:  - x3 - x5 + x24 - x31 + x32 - x36 + x37 + x39 - x45 - x46  = 0
 c32:  - x53 - x55 + x74 - x81 + x82 - x86 + x87 + x89 - x95 - x96  = 0
 c33:  - x103 - x105 + x124 - x131 + x132 - x136 + x137 + x139 - x145 - x146
        = 0
 c34:  - x153 - x155 + x174 - x181 + x182 - x186 + x187 + x189 - x195 - x196
        = 0
 c35:  - x203 - x205 + x224 - x231 + x232 - x236 + x237 + x239 - x245 - x246
        = 0
 c36:  x6 + x15 + x19 - x23 - x28  = 0
 c37:  x56 + x65 + x69 - x73 - x78  = -1
 c38:  x106 + x115 + x119 - x123 - x128  = -1
 c39:  x156 + x165 + x169 - x173 - x178  = 0
 c40:  x206 + x215 + x219 - x223 - x228  = 0
 c41:  x1 + x16 - x24 - x49  = 0
 c42:  x51 + x66 - x74 - x99  = 0
 c43:  x101 + x116 - x124 - x149  = 0
 c44:  x151 + x166 - x174 - x199  = 0
 c45:  x201 + x216 - x224 - x249  = 0
 c46:  x3 - x11 + x14 + x20 - x29 - x33 - x38  = 0
 c47:  x53 - x61 + x64 + x70 - x79 - x83 - x88  = 0
 c48:  x103 - x111 + x114 + x120 - x129 - x133 - x138  = 0
 c49:  x153 - x161 + x164 + x170 - x179 - x183 - x188  = 0
 c50:  x203 - x211 + x214 + x220 - x229 - x233 - x238  = 0
 c51:  - x8 - x9 - x10 - x14 - x32 + x34  = 0
 c52:  - x58 - x59 - x60 - x64 - x82 + x84  = 0
 c53:  - x108 - x109 - x110 - x114 - x132 + x134  = 0
 c54:  - x158 - x159 - x160 - x164 - x182 + x184  = 0
 c55:  - x208 - x209 - x210 - x214 - x232 + x234  = 0
 c56:  - x26 + x36 - x39  = 0
 c57:  - x76 + x86 - x89  = 0
 c58:  - x126 + x136 - x139  = 0
 c59:  - x176 + x186 - x189  = 0
 c60:  - x226 + x236 - x239  = 0
 c61:  x4 + x7 - x15 - x17 - x27 + x28 + x30 + x31 + x38 + x44 + x47  = 0
 c62:  x54 + x57 - x65 - x67 - x77 + x78 + x80 + x81 + x88 + x94 + x97  = 0
 c63:  x104 + x107 - x115 - x117 - x127 + x128 + x130 + x131 + x138 + x144
       + x147  = 0
 c64:  x154 + x157 - x165 - x167 - x177 + x178 + x180 + x181 + x188 + x194
       + x197  = 0
 c65:  x204 + x207 - x215 - x217 - x227 + x228 + x230 + x231 + x238 + x244
       + x247  = 0
 c66:  - x4 + x5 + x10 + x18 - x21  = 0
 c67:  - x54 + x55 + x60 + x68 - x71  = 1
 c68:  - x104 + x105 + x110 + x118 - x121  = 0
 c69:  - x154 + x155 + x160 + x168 - x171  = 0
 c70:  - x204 + x205 + x210 + x218 - x221  = -1
 c71:  x2 + x8 - x16 - x41 + x42 + x49  = 0
 c72:  x52 + x58 - x66 - x91 + x92 + x99  = 0
 c73:  x102 + x108 - x116 - x141 + x142 + x149  = 0
 c74:  x152 + x158 - x166 - x191 + x192 + x199  = 0
 c75:  x202 + x208 - x216 - x241 + x242 + x249  = 0
 c76:  4 x1 + 4 x51 + 4 x101 + 4 x151 + 4 x201 - 9 x251 <= 0
 c77:  4 x2 + 4 x52 + 4 x102 + 4 x152 + 4 x202 - 10 x252 <= 0
 c78:  4 x3 + 4 x53 + 4 x103 + 4 x153 + 4 x203 - 10 x253 <= 0
 c79:  4 x4 + 4 x54 + 4 x104 + 4 x154 + 4 x204 - 9 x254 <= 0
 c80:  4 x5 + 4 x55 + 4 x105 + 4 x155 + 4 x205 - 9 x255 <= 0
 c81:  4 x6 + 4 x56 + 4 x106 + 4 x156 + 4 x206 - 10 x256 <= 0
 c82:  4 x7 + 4 x57 + 4 x107 + 4 x157 + 4 x207 - 10 x257 <= 0
 c83:  4 x8 + 4 x58 + 4 x108 + 4 x158 + 4 x208 - 10 x258 <= 0
 c84:  4 x9 + 4 x59 + 4 x109 + 4 x159 + 4 x209 - 10 x259 <= 0
 c85:  4 x10 + 4 x60 + 4 x110 + 4 x160 + 4 x210 - 9 x260 <= 0
 c86:  4 x11 + 4 x61 + 4 x111 + 4 x161 + 4 x211 - 10 x261 <= 0
 c87:  4 x12 + 4 x62 + 4 x112 + 4 x162 + 4 x212 - 10 x262 <= 0
 c88:  4 x13 + 4 x63 + 4 x113 + 4 x163 + 4 x213 - 11 x263 <= 0
 c89:  4 x14 + 4 x64 + 4 x114 + 4 x164 + 4 x214 - 10 x264 <= 0
 c90:  4 x15 + 4 x65 + 4 x115 + 4 x165 + 4 x215 - 9 x265 <= 0
 c91:  4 x16 + 4 x66 + 4 x116 + 4 x166 + 4 x216 - 10 x266 <= 0
 c92:  4 x17 + 4 x67 + 4 x117 + 4 x167 + 4 x217 - 11 x267 <= 0
 c93:  4 x18 + 4 x68 + 4 x118 + 4 x168 + 4 x218 - 10 x268 <= 0
 c94:  4 x19 + 4 x69 + 4 x119 + 4 x169 + 4 x219 - 10 x269 <= 0
 c95:  4 x20 + 4 x70 + 4 x120 + 4 x170 + 4 x220 - 11 x270 <= 0
 c96:  4 x21 + 4 x71 + 4 x121 + 4 x171 + 4 x221 - 10 x271 <= 0
 c97:  4 x22 + 4 x72 + 4 x122 + 4 x172 + 4 x222 - 11 x272 <= 0
 c98:  4 x23 + 4 x73 + 4 x123 + 4 x173 + 4 x223 - 10 x273 <= 0
 c99:  4 x24 + 4 x74 + 4 x124 + 4 x174 + 4 x224 - 9 x274 <= 0
 c100: 4 x25 + 4 x75 + 4 x125 + 4 x175 + 4 x225 - 10 x275 <= 0
 c101: 4 x26 + 4 x76 + 4 x126 + 4 x176 + 4 x226 - 9 x276 <= 0
 c102: 4 x27 + 4 x77 + 4 x127 + 4 x177 + 4 x227 - 10 x277 <= 0
 c103: 4 x28 + 4 x78 + 4 x128 + 4 x178 + 4 x228 - 9 x278 <= 0
 c104: 4 x29 + 4 x79 + 4 x129 + 4 x179 + 4 x229 - 10 x279 <= 0
 c105: 4 x30 + 4 x80 + 4 x130 + 4 x180 + 4 x230 - 10 x280 <= 0
 c106: 4 x31 + 4 x81 + 4 x131 + 4 x181 + 4 x231 - 10 x281 <= 0
 c107: 4 x32 + 4 x82 + 4 x132 + 4 x182 + 4 x232 - 10 x282 <= 0
 c108: 4 x33 + 4 x83 + 4 x133 + 4 x183 + 4 x233 - 10 x283 <= 0
 c109: 4 x34 + 4 x84 + 4 x134 + 4 x184 + 4 x234 - 9 x284 <= 0
 c110: 4 x35 + 4 x85 + 4 x135 + 4 x185 + 4 x235 - 9 x285 <= 0
 c111: 4 x36 + 4 x86 + 4 x136 + 4 x186 + 4 x236 - 9 x286 <= 0
 c112: 4 x37 + 4 x87 + 4 x137 + 4 x187 + 4 x237 - 10 x287 <= 0
 c113: 4 x38 + 4 x88 + 4 x138 + 4 x188 + 4 x238 - 9 x288 <= 0
 c114: 4 x39 + 4 x89 + 4 x139 + 4 x189 + 4 x239 - 10 x289 <= 0
 c115: 4 x40 + 4 x90 + 4 x140 + 4 x190 + 4 x240 - 10 x290 <= 0
 c116: 4 x41 + 4 x91 + 4 x141 + 4 x191 + 4 x241 - 10 x291 <= 0
 c117: 4 x42 + 4 x92 + 4 x142 + 4 x192 + 4 x242 - 9 x292 <= 0
 c118: 4 x43 + 4 x93 + 4 x143 + 4 x193 + 4 x243 - 11 x293 <= 0
 c119: 4 x44 + 4 x94 + 4 x144 + 4 x194 + 4 x244 - 10 x294 <= 0
 c120: 4 x45 + 4 x95 + 4 x145 + 4 x195 + 4 x245 - 11 x295 <= 0
 c121: 4 x46 + 4 x96 + 4 x146 + 4 x196 + 4 x246 - 9 x296 <= 0
 c122: 4 x47 + 4 x97 + 4 x147 + 4 x197 + 4 x247 - 10 x297 <= 0
 c123: 4 x48 + 4 x98 + 4 x148 + 4 x198 + 4 x248 - 10 x298 <= 0
 c124: 4 x49 + 4 x99 + 4 x149 + 4 x199 + 4 x249 - 10 x299 <= 0
 c125: 4 x50 + 4 x100 + 4 x150 + 4 x200 + 4 x250 - 18 x300 <= 0
Bounds
 0 <= x1 <= 1
 0 <= x2 <= 1
 0 <= x3 <= 1
 0 <= x4 <= 1
 0 <= x5 <= 1
 0 <= x6 <= 1
 0 <= x7 <= 1
 0 <= x8 <= 1
 0 <= x9 <= 1
 0 <= x10 <= 1
 0 <= x11 <= 1
 0 <= x12 <= 1
 0 <= x13 <= 1
 0 <= x14 <= 1
 0 <= x15 <= 1
 0 <= x16 <= 1
 0 <= x17 <= 1
 0 <= x18 <= 1
 0 <= x19 <= 1
 0 <= x20 <= 1
 0 <= x21 <= 1
 0 <= x22 <= 1
 0 <= x23 <= 1
 0 <= x24 <= 1
 0 <= x25 <= 1
 0 <= x26 <= 1
 0 <= x27 <= 1
 0 <= x28 <= 1
 0 <= x29 <= 1
 0 <= x30 <= 1
 0 <= x31 <= 1
 0 <= x32 <= 1
 0 <= x33 <= 1
 0 <= x34 <= 1
 0 <= x35 <= 1
 0 <= x36 <= 1
 0 <= x37 <= 1
 0 <= x38 <= 1
 0 <= x39 <= 1
 0 <= x40 <= 1
 0 <= x41 <= 1
 0 <= x42 <= 1
 0 <= x43 <= 1
 0 <= x44 <= 1
 0 <= x45 <= 1
 0 <= x46 <= 1
 0 <= x47 <= 1
 0 <= x48 <= 1
 0 <= x49 <= 1
 0 <= x50 <= 1
 0 <= x51 <= 1
 0 <= x52 <= 1
 0 <= x53 <= 1
 0 <= x54 <= 1
 0 <= x55 <= 1
 0 <= x56 <= 1
 0 <= x57 <= 1
 0 <= x58 <= 1
 0 <= x59 <= 1
 0 <= x60 <= 1
 0 <= x61 <= 1
 0 <= x62 <= 1
 0 <= x63 <= 1
 0 <= x64 <= 1
 0 <= x65 <= 1
 0 <= x66 <= 1
 0 <= x67 <= 1
 0 <= x68 <= 1
 0 <= x69 <= 1
 0 <= x70 <= 1
 0 <= x71 <= 1
 0 <= x72 <= 1
 0 <= x73 <= 1
 0 <= x74 <= 1
 0 <= x75 <= 1
 0 <= x76 <= 1
 0 <= x77 <= 1
 0 <= x78 <= 1
 0 <= x79 <= 1
 0 <= x80 <= 1
 0 <= x81 <= 1
 0 <= x82 <= 1
 0 <= x83 <= 1
 0 <= x84 <= 1
 0 <= x85 <= 1
 0 <= x86 <= 1
 0 <= x87 <= 1
 0 <= x88 <= 1
 0 <= x89 <= 1
 0 <= x90 <= 1
 0 <= x91 <= 1
 0 <= x92 <= 1
 0 <= x93 <= 1
 0 <= x94 <= 1
 0 <= x95 <= 1
 0 <= x96 <= 1
 0 <= x97 <= 1
 0 <= x98 <= 1
 0 <= x99 <= 1
 0 <= x100 <= 1
 0 <= x101 <= 1
 0 <= x102 <= 1
 0 <= x103 <= 1
 0 <= x104 <= 1
 0 <= x105 <= 1
 0 <= x106 <= 1
 0 <= x107 <= 1
 0 <= x108 <= 1
 0 <= x109 <= 1
 0 <= x110 <= 1
 0 <= x111 <= 1
 0 <= x112 <= 1
 0 <= x113 <= 1
 0 <= x114 <= 1
 0 <= x115 <= 1
 0 <= x116 <= 1
 0 <= x117 <= 1
 0 <= x118 <= 1
 0 <= x119 <= 1
 0 <= x120 <= 1
 0 <= x121 <= 1
 0 <= x122 <= 1
 0 <= x123 <= 1
 0 <= x124 <= 1
 0 <= x125 <= 1
 0 <= x126 <= 1
 0 <= x127 <= 1
 0 <= x128 <= 1
 0 <= x129 <= 1
 0 <= x130 <= 1
 0 <= x131 <= 1
 0 <= x132 <= 1
 0 <= x133 <= 1
 0 <= x134 <= 1
 0 <= x135 <= 1
 0 <= x136 <= 1
 0 <= x137 <= 1
 0 <= x138 <= 1
 0 <= x139 <= 1
 0 <= x140 <= 1
 0 <= x141 <= 1
 0 <= x142 <= 1
 0 <= x143 <= 1
 0 <= x144 <= 1
 0 <= x145 <= 1
 0 <= x146 <= 1
 0 <= x147 <= 1
 0 <= x148 <= 1
 0 <= x149 <= 1
 0 <= x150 <= 1
 0 <= x151 <= 1
 0 <= x152 <= 1
 0 <= x153 <= 1
 0 <= x154 <= 1
 0 <= x155 <= 1
 0 <= x156 <= 1
 0 <= x157 <= 1
 0 <= x158 <= 1
 0 <= x159 <= 1
 0 <= x160 <= 1
 0 <= x161 <= 1
 0 <= x162 <= 1
 0 <= x163 <= 1
 0 <= x164 <= 1
 0 <= x165 <= 1
 0 <= x166 <= 1
 0 <= x167 <= 1
 0 <= x168 <= 1
 0 <= x169 <= 1
 0 <= x170 <= 1
 0 <= x171 <= 1
 0 <= x172 <= 1
 0 <= x173 <= 1
 0 <= x174 <= 1
 0 <= x175 <= 1
 0 <= x176 <= 1
 0 <= x177 <= 1
 0 <= x178 <= 1
 0 <= x179 <= 1
 0 <= x180 <= 1
 0 <= x181 <= 1
 0 <= x182 <= 1
 0 <= x183 <= 1
 0 <= x184 <= 1
 0 <= x185 <= 1
 0 <= x186 <= 1
 0 <= x187 <= 1
 0 <= x188 <= 1
 0 <= x189 <= 1
 0 <= x190 <= 1
 0 <= x191 <= 1
 0 <= x192 <= 1
 0 <= x193 <= 1
 0 <= x194 <= 1
 0 <= x195 <= 1
 0 <= x196 <= 1
 0 <= x197 <= 1
 0 <= x198 <= 1
 0 <= x199 <= 1
 0 <= x200 <= 1
 0 <= x201 <= 1
 0 <= x202 <= 1
 0 <= x203 <= 1
 0 <= x204 <= 1
 0 <= x205 <= 1
 0 <= x206 <= 1
 0 <= x207 <= 1
 0 <= x208 <= 1
 0 <= x209 <= 1
 0 <= x210 <= 1
 0 <= x211 <= 1
 0 <= x212 <= 1
 0 <= x213 <= 1
 0 <= x214 <= 1
 0 <= x215 <= 1
 0 <= x216 <= 1
 0 <= x217 <= 1
 0 <= x218 <= 1
 0 <= x219 <= 1
 0 <= x220 <= 1
 0 <= x221 <= 1
 0 <= x222 <= 1
 0 <= x223 <= 1
 0 <= x224 <= 1
 0 <= x225 <= 1
 0 <= x226 <= 1
 0 <= x227 <= 1
 0 <= x228 <= 1
 0 <= x229 <= 1
 0 <= x230 <= 1
 0 <= x231 <= 1
 0 <= x232 <= 1
 0 <= x233 <= 1
 0 <= x234 <= 1
 0 <= x235 <= 1
 0 <= x236 <= 1
 0 <= x237 <= 1
 0 <= x238 <= 1
 0 <= x239 <= 1
 0 <= x240 <= 1
 0 <= x241 <= 1
 0 <= x242 <= 1
 0 <= x243 <= 1
 0 <= x244 <= 1
 0 <= x245 <= 1
 0 <= x246 <= 1
 0 <= x247 <= 1
 0 <= x248 <= 1
 0 <= x249 <= 1
 0 <= x250 <= 1
 0 <= x251 <= 1
 0 <= x252 <= 1
 0 <= x253 <= 1
 0 <= x254 <= 1
 0 <= x255 <= 1
 0 <= x256 <= 1
 0 <= x257 <= 1
 0 <= x258 <= 1
 0 <= x259 <= 1
 0 <= x260 <= 1
 0 <= x261 <= 1
 0 <= x262 <= 1
 0 <= x263 <= 1
 0 <= x264 <= 1
 0 <= x265 <= 1
 0 <= x266 <= 1
 0 <= x267 <= 1
 0 <= x268 <= 1
 0 <= x269 <= 1
 0 <= x270 <= 1
 0 <= x271 <= 1
 0 <= x272 <= 1
 0 <= x273 <= 1
 0 <= x274 <= 1
 0 <= x275 <= 1
 0 <= x276 <= 1
 0 <= x277 <= 1
 0 <= x278 <= 1
 0 <= x279 <= 1
 0 <= x280 <= 1
 0 <= x281 <= 1
 0 <= x282 <= 1
 0 <= x283 <= 1
 0 <= x284 <= 1
 0 <= x285 <= 1
 0 <= x286 <= 1
 0 <= x287 <= 1
 0 <= x288 <= 1
 0 <= x289 <= 1
 0 <= x290 <= 1
 0 <= x291 <= 1
 0 <= x292 <= 1
 0 <= x293 <= 1
 0 <= x294 <= 1
 0 <= x295 <= 1
 0 <= x296 <= 1
 0 <= x297 <= 1
 0 <= x298 <= 1
 0 <= x299 <= 1
 0 <= x300 <= 1
Binaries
 x251  x252  x253  x254  x255  x256  x257  x258  x259  x260  x261  x262  x263 
 x264  x265  x266  x267  x268  x269  x270  x271  x272  x273  x274  x275  x276 
 x277  x278  x279  x280  x281  x282  x283  x284  x285  x286  x287  x288  x289 
 x290  x291  x292  x293  x294  x295  x296  x297  x298  x299  x300 
End
